decision_x1=[0,2];
decision_x2=[0,2];
decision_x3=[0,2];
decision_x4=[0,2];
decision_x5=[0,2];
decision_x6=[0,2];
decision_x7=[0,2];
decision_x8=[0,2];
decision_x9=[0,2];
decision_x10=[0,2];
random_y1=[0,2];
random_y2=[0,2];
constraint_x3_x2=[
0,1,8.1|
0,2,1.2|
1,0,7.2|
1,2,0.7|
2,0,0.8|
2,1,6.6|
];
constraint_x4_x3=[
0,1,6.5|
0,2,4|
1,0,3.4|
1,2,7.9|
2,0,1.7|
2,1,7.2|
];
constraint_x5_x1=[
0,1,5.6|
0,2,1.7|
1,0,3.6|
1,2,8.6|
2,0,0.9|
2,1,3.6|
];
constraint_x5_x2=[
0,1,2|
0,2,0.74|
1,0,9|
1,2,8|
2,0,6.1|
2,1,4.4|
];
constraint_x5_x3=[
0,1,5.4|
0,2,5.9|
1,0,4.3|
1,2,1.3|
2,0,5.5|
2,1,1.5|
];
constraint_x5_x4=[
0,1,7.3|
0,2,2.7|
1,0,5|
1,2,3.9|
2,0,5.2|
2,1,4.8|
];
constraint_x6_x1=[
0,1,1.3|
0,2,2.2|
1,0,4.3|
1,2,9.6|
2,0,3.3|
2,1,6.7|
];
constraint_x6_x2=[
0,1,1.5|
0,2,1.6|
1,0,6.2|
1,2,1.1|
2,0,2.6|
2,1,4.5|
];
constraint_x6_x3=[
0,1,7|
0,2,9.1|
1,0,9|
1,2,4.7|
2,0,5.8|
2,1,6.3|
];
constraint_x7_x1=[
0,1,0.59|
0,2,0.79|
1,0,7.1|
1,2,3|
2,0,9.7|
2,1,2.6|
];
constraint_x7_x2=[
0,1,1|
0,2,2.5|
1,0,5.3|
1,2,3.6|
2,0,6.8|
2,1,3.4|
];
constraint_x7_x6=[
0,1,1.9|
0,2,5|
1,0,5.8|
1,2,5|
2,0,7.8|
2,1,9|
];
constraint_x8_x2=[
0,1,8.1|
0,2,7.5|
1,0,0.92|
1,2,2.8|
2,0,2.2|
2,1,8|
];
constraint_x8_x3=[
0,1,7.2|
0,2,7.1|
1,0,5.6|
1,2,7|
2,0,4.8|
2,1,3.8|
];
constraint_x9_x1=[
0,1,4.6|
0,2,4.5|
1,0,1.1|
1,2,0.81|
2,0,1.1|
2,1,6.5|
];
constraint_x9_x2=[
0,1,7.6|
0,2,6.9|
1,0,5.5|
1,2,9.7|
2,0,5.7|
2,1,4.4|
];
constraint_x9_x5=[
0,1,1.2|
0,2,3.3|
1,0,2.7|
1,2,9.3|
2,0,3.2|
2,1,6.1|
];
constraint_x9_x8=[
0,1,8.4|
0,2,5.7|
1,0,1.5|
1,2,1|
2,0,0.85|
2,1,4.5|
];
constraint_x10_x3=[
0,1,0.98|
0,2,6.3|
1,0,1.1|
1,2,4.8|
2,0,2.5|
2,1,7.4|
];
constraint_x10_x4=[
0,1,0.5|
0,2,4.3|
1,0,6.9|
1,2,9.9|
2,0,6.6|
2,1,3.2|
];
constraint_x10_x6=[
0,1,7.5|
0,2,1.1|
1,0,5.5|
1,2,3.5|
2,0,4.5|
2,1,1.7|
];
constraint_x10_x7=[
0,1,7.7|
0,2,9.1|
1,0,5.5|
1,2,0.79|
2,0,0.21|
2,1,2.5|
];
constraint_x10_x8=[
0,1,7.2|
0,2,2.7|
1,0,2.7|
1,2,0.67|
2,0,4.4|
2,1,3.6|
];
constraint_x1_y1=[
0,0,0.77|
0,1,0.065|
0,2,2.1|
1,0,3.2|
1,1,1.5|
1,2,4.7|
2,0,1.1|
2,1,4.6|
2,2,2.2|
];
constraint_x2_y2=[
0,0,6.8|
0,1,7.4|
0,2,7.3|
1,0,6.1|
1,1,0.13|
1,2,9.3|
2,0,1.8|
2,1,1.4|
2,2,6.1|
];
initial_distribution_y1=[0.3,0.48,0.22];
initial_distribution_y2=[0.36,0.15,0.48];
transition_y1=[
0.49,0.086,0.42|
0.32,0.48,0.2|
0.4,0.13,0.48|
];
transition_y2=[
0.16,0.5,0.33|
0.089,0.53,0.38|
0.52,0.21,0.27|
];
